NAME          OrnekMPS

OBJSENSE
 MIN
ROWS
 N  COST
 G  LIM1
 G  LIM2
COLUMNS
    X1        COST               80.0   LIM1               15.0
	X1			LIM2 10.0			
    X2        COST               50.0   LIM1               20.0
	X2		LIM2  5.0		
RHS
    RHS1      LIM1               60.0		LIM2	30.0
ENDATA
